
  17    4
  10   10   10   10

   0   0   0   0   0   3 2 4 5 
   9  10  10  10  10   3 9 7 3 
   7  10  10  10  10   4 13 11 8 6 
   4  10  10  10  10   2 7 6 
   3  10  10  10  10   5 16 12 11 10 8 
  10  10  10  10  10   4 16 15 12 10 
   1  10  10  10  10   2 15 11 
   4  10  10  10  10   2 15 14 
   3  10  10  10  10   1 10 
   5  10  10  10  10   1 14 
   9  10  10  10  10   1 14 
   8  10  10  10  10   1 14 
   8  10  10  10  10   1 14 
   1  10  10  10  10   1 17
   6  10  10  10  10   1 17
   1  10  10  10  10   1 17
   0   0   0   0   0   0 
